30 61
29
11 5 19 0
11 4 0 57
10 19 0 15
10 7 9 0
9 16 11 45
9 9 0 6
8 5 9 7
7 25 23 5
7 13 4 44
7 12 23 30
7 7 10 12
7 5 10 19
6 24 17 8
6 18 20 43
6 11 17 32
6 10 4 34
6 5 3 0
5 21 12 24
4 23 0 34
4 10 26 46
4 2 19 5
4 2 26 42
4 1 26 44
3 6 0 0
3 5 26 56
2 12 10 24
2 7 10 37
2 1 17 7
1 4 29 57

301
True
NOT_OPTIMAL